QBPP_HJ*_25_025_20_5
25 64 144
39 40 13 3 13 7 2 37 44 26 50 13 35 20 12 50 5 48 2 9 26 36 38 40 32
    0   21   13    0    0  -25    0    0    0    0    0    0    0    0    0  -15   50    0  -35    0    3    0    0  -18   -1
   21    0  -16    0    0    8    0    0    0    0    0    0    0    0    0    0    0    0    0    0    0  -47    0    0   29
   13  -16    0    0    0    0    0    0    0    0   38    2    0    0    0    0    0    0    0    0    0  -22    0    0    0
    0    0    0    0    0    0    0    0    0   29  -22    0    0  -36    0    0    0  -31    0    0    8    0    0    0    0
    0    0    0    0    0    0    0  -49    0    0    0    0    0    0    0    0    0    0  -42    0   19    0    0    0  -35
  -25    8    0    0    0    0   -1    5    0    0  -11    0   14    0   37    0    0    0    0  -16    0    0    0    0   33
    0    0    0    0    0   -1    0    0    0    0   32    0    0    0  -31    0    0    0    0   31   12    0  -37    0    0
    0    0    0    0  -49    5    0    0  -39    0    0    0    0    0    0    0   -1    0    0  -20    0    0    0    0    0
    0    0    0    0    0    0    0  -39    0    0    0    0    0    0    0    0    0   -9    0    0    0    0    0    0    0
    0    0    0   29    0    0    0    0    0    0    0    0    5   -7    0   -7    0    0    0    0    0    5    0    0    0
    0    0   38  -22    0  -11   32    0    0    0    0    0    0    0    0    0    0    0    0    0    0  -12  -13    0    0
    0    0    2    0    0    0    0    0    0    0    0    0    0    0    0    0    0   -2    0  -49    0    0    0    0    0
    0    0    0    0    0   14    0    0    0    5    0    0    0    0    0    0    0    0   15    0    0    0    0    0    1
    0    0    0  -36    0    0    0    0    0   -7    0    0    0    0    0    0    0   -1   22  -23    0    0  -39    0    0
    0    0    0    0    0   37  -31    0    0    0    0    0    0    0    0  -10    0   27    0   11    0    0    0    0    0
  -15    0    0    0    0    0    0    0    0   -7    0    0    0    0  -10    0    0    0  -30   23    0   -1    1    0    0
   50    0    0    0    0    0    0   -1    0    0    0    0    0    0    0    0    0    0  -22    0    0  -19    0    0    0
    0    0    0  -31    0    0    0    0   -9    0    0   -2    0   -1   27    0    0    0    0   -2    0    0    0    0    0
  -35    0    0    0  -42    0    0    0    0    0    0    0   15   22    0  -30  -22    0    0    0    0    0   29   13    0
    0    0    0    0    0  -16   31  -20    0    0    0  -49    0  -23   11   23    0   -2    0    0    0    0    0  -31   -3
    3    0    0    8   19    0   12    0    0    0    0    0    0    0    0    0    0    0    0    0    0  -10    0    0    0
    0  -47  -22    0    0    0    0    0    0    5  -12    0    0    0    0   -1  -19    0    0    0  -10    0   49    0    0
    0    0    0    0    0    0  -37    0    0    0  -13    0    0  -39    0    1    0    0   29    0    0   49    0   -8    0
  -18    0    0    0    0    0    0    0    0    0    0    0    0    0    0    0    0    0   13  -31    0    0   -8    0  -50
   -1   29    0    0  -35   33    0    0    0    0    0    0    1    0    0    0    0    0    0   -3    0    0    0  -50    0
